; benchmark generated from python API
(set-info :status unknown)
(declare-datatypes ((RealState 0)) (((RMk1 (rval1 Real)) (RMk2 (rval2 Real)))))
 (declare-fun x1 () Real)
(assert
 (let (($x1156 (exists ((?y1_st RealState) (val!13 Real) )(let (($x1031 (exists ((?y2 Real) )(! (let (($x398 (forall ((?y3 Real) )(! (let (($x270 (exists ((?y4 Real) )(! (let ((?x415 (- 22.0)))
 (let ((?x849 (* 75.0 x1)))
 (let ((?x218 (+ (+ (+ (* (- 21.0) ?y4) (* 47.0 ?y3)) (* 48.0 ?y2)) ?x849)))
 (<= ?x218 ?x415)))) :qid k!18))
 ))
 (let (($x1142 (= (+ (+ (* 17.0 ?y3) (* (- 50.0) (rval2 ?y1_st))) (* 88.0 x1)) 0.0)))
 (let (($x1201 (<= (+ (+ (* (- 75.0) ?y3) (* 26.0 (rval2 ?y1_st))) (* 21.0 x1)) 71.0)))
 (or (and $x1201 $x1142) $x270)))) :qid k!18))
 ))
 (let (($x394 (forall ((?y3 Real) )(! (let (($x851 (< (+ (+ (* 60.0 ?y3) (* (- 11.0) ?y2)) (* 75.0 x1)) 43.0)))
 (let ((?x56 (- 80.0)))
 (let ((?x255 (- 75.0)))
 (let ((?x256 (* ?x255 x1)))
 (and (< (+ (+ (* (- 23.0) ?y2) (* 15.0 (rval2 ?y1_st))) ?x256) ?x56) $x851))))) :qid k!18))
 ))
 (and $x394 $x398))) :qid k!18))
 ))
 (let (($x1056 (exists ((?y2 Real) )(! (exists ((?y4 Real) )(! (let ((?x255 (- 75.0)))
 (let ((?x256 (* ?x255 x1)))
 (let ((?x1158 (+ (+ (+ (* 21.0 ?y4) (* 98.0 ?y2)) (* 97.0 (rval2 ?y1_st))) ?x256)))
 (let ((?x586 (* (- 40.0) x1)))
 (let (($x356 (>= (+ (+ (* (- 84.0) ?y4) (* 52.0 (rval2 ?y1_st))) ?x586) 34.0)))
 (let ((?x224 (- 33.0)))
 (let ((?x822 (* ?x224 x1)))
 (let ((?x479 (- 100.0)))
 (let ((?x809 (* ?x479 ?y2)))
 (let ((?x819 (+ (* ?x224 ?y4) ?x809)))
 (let ((?x815 (* (- 32.0) x1)))
 (let (($x1078 (= (+ (+ (+ (* (- 23.0) ?y4) ?x809) (* 80.0 (rval2 ?y1_st))) ?x815) 12.0)))
 (let (($x1019 (and $x1078 (<= (+ (+ ?x819 (* (- 71.0) (rval2 ?y1_st))) ?x822) 0.0))))
 (and $x1019 (or $x356 (= ?x1158 63.0)))))))))))))))) :qid k!18))
  :qid k!18))
 ))
 (let (($x758 (not (= ?y1_st (RMk1 val!13)))))
 (and $x758 (or $x1056 $x1031))))))
 ))
 (let (($x1103 (exists ((?y1_st RealState) (val!11 Real) )(exists ((?y2_st RealState) (val!12 Real) )(let (($x1005 (forall ((?y4 Real) )(! (let ((?x796 (- 97.0)))
 (let ((?x228 (- 19.0)))
 (let ((?x789 (* ?x228 x1)))
 (let ((?x239 (rval2 ?y1_st)))
 (let ((?x1046 (* 86.0 ?x239)))
 (let (($x1064 (= (+ (+ (+ (* 80.0 ?y4) (* 68.0 (rval2 ?y2_st))) ?x1046) ?x789) ?x796)))
 (let (($x1069 (>= (+ (+ (* 46.0 ?y4) (* 90.0 (rval2 ?y2_st))) (* (- 87.0) ?x239)) 1.0)))
 (let ((?x682 (- 39.0)))
 (let (($x1030 (= (+ (+ (* 17.0 ?y4) (* 94.0 (rval2 ?y2_st))) (* (- 60.0) x1)) ?x682)))
 (and (not $x1030) (or $x1069 (not $x1064)))))))))))) :qid k!18))
 ))
 (let ((?x763 (- 9.0)))
 (let (($x1180 (= (+ (* (- 88.0) (rval2 ?y2_st)) (* (- 60.0) (rval2 ?y1_st))) ?x763)))
 (let ((?x638 (* 96.0 x1)))
 (let (($x1058 (> (+ (+ (* 38.0 (rval2 ?y2_st)) (* (- 13.0) (rval2 ?y1_st))) ?x638) 0.0)))
 (let (($x1006 (not (= (+ (* (- 45.0) (rval2 ?y1_st)) (* 31.0 x1)) (- 21.0)))))
 (let (($x625 (forall ((?y3 Real) )(! (= (* (- 83.0) x1) 35.0) :qid k!18))
 ))
 (let (($x694 (forall ((?y3 Real) )(! (> (+ (* (- 58.0) ?y3) (* 19.0 x1)) 0.0) :qid k!18))
 ))
 (let (($x619 (and $x694 $x625)))
 (let (($x360 (forall ((?y4 Real) )(! (let (($x1232 (= (+ (+ (* (- 2.0) ?y4) (* 39.0 (rval2 ?y2_st))) (* 29.0 x1)) 0.0)))
 (not $x1232)) :qid k!18))
 ))
 (let (($x1057 (exists ((?y4 Real) )(! (let ((?x702 (* 48.0 x1)))
 (let ((?x239 (rval2 ?y1_st)))
 (let ((?x1008 (* 27.0 ?x239)))
 (< (+ (+ (+ (* 47.0 ?y4) (* (- 30.0) (rval2 ?y2_st))) ?x1008) ?x702) 70.0)))) :qid k!18))
 ))
 (let (($x758 (not (= ?y2_st (RMk1 val!12)))))
 (let (($x1059 (not (= ?y1_st (RMk1 val!11)))))
 (and $x1059 $x758 (or (and (or $x1057 $x360) (or $x619 (or (or $x1006 $x1058) $x1180))) $x1005))))))))))))))))
 )
 ))
 (let (($x995 (exists ((?y2_st RealState) (val!9 Real) )(exists ((?y3_st RealState) (val!10 Real) )(forall ((?y4 Real) )(let ((?x205 (- 2.0)))
 (let (($x641 (< (+ (* (- 14.0) ?y4) (* 45.0 x1)) ?x205)))
 (let ((?x586 (* (- 40.0) x1)))
 (let ((?x1013 (+ (+ (* 53.0 ?y4) (* 95.0 (rval2 ?y3_st))) (* (- 14.0) (rval2 ?y2_st)))))
 (let ((?x583 (- 88.0)))
 (let ((?x666 (* ?x583 x1)))
 (let ((?x239 (rval2 ?y2_st)))
 (let ((?x1219 (* 54.0 ?x239)))
 (let (($x1029 (= (+ (+ (+ (* 39.0 ?y4) (* 57.0 (rval2 ?y3_st))) ?x1219) ?x666) 9.0)))
 (let ((?x710 (- 18.0)))
 (let ((?x433 (* ?x710 x1)))
 (let ((?x425 (+ (+ (+ (* 47.0 ?y4) (* 75.0 (rval2 ?y3_st))) (* (- 8.0) ?x239)) ?x433)))
 (let (($x1228 (and (and (= ?x425 42.0) $x1029) (and (not (= (+ ?x1013 ?x586) 20.0)) $x641))))
 (let ((?x880 (* (- 70.0) x1)))
 (let ((?x1086 (+ (+ (* (- 51.0) ?y4) (* ?x710 (rval2 ?y3_st))) (* (- 95.0) ?x239))))
 (let ((?x698 (* 69.0 x1)))
 (let ((?x410 (+ (+ (+ (* 96.0 ?y4) (* (- 38.0) (rval2 ?y3_st))) (* 29.0 ?x239)) ?x698)))
 (let (($x119 (not (= ?y3_st (RMk1 val!10)))))
 (let (($x367 (not (= ?y2_st (RMk1 val!9)))))
 (and $x367 $x119 (or (and (not (= ?x410 45.0)) (<= (+ ?x1086 ?x880) 68.0)) $x1228))))))))))))))))))))))
 )
 )
 ))
 (let (($x413 (forall ((?y2 Real) )(exists ((?y3_st RealState) (val!7 Real) )(exists ((?y4_st RealState) (val!8 Real) )(let ((?x691 (* 51.0 x1)))
 (let (($x423 (<= (+ (+ (* (- 95.0) (rval2 ?y3_st)) (* (- 39.0) ?y2)) ?x691) 57.0)))
 (let (($x418 (and (<= (+ (* 42.0 (rval2 ?y3_st)) (* (- 64.0) ?y2)) 45.0) $x423)))
 (let (($x758 (not (= ?y4_st (RMk1 val!8)))))
 (let (($x1059 (not (= ?y3_st (RMk1 val!7)))))
 (and $x1059 $x758 $x418)))))))
 )
 )
 ))
 (let (($x1261 (forall ((?y2 Real) )(or (<= (+ (* (- 22.0) ?y2) (* (- 22.0) x1)) 0.0) (>= (* (- 29.0) x1) 0.0)))
 ))
 (let (($x282 (exists ((?y2_st RealState) (val!6 Real) )(forall ((?y3 Real) )(let ((?x760 (- 46.0)))
 (let (($x719 (> (+ (* 35.0 ?y3) (* (- 75.0) x1)) ?x760)))
 (let (($x119 (not (= ?y2_st (RMk1 val!6)))))
 (and $x119 $x719)))))
 )
 ))
 (let (($x366 (forall ((?y2 Real) )(let (($x722 (and (<= (* 14.0 ?y2) (- 72.0)) (< (* (- 35.0) ?y2) 97.0))))
 (let (($x615 (forall ((?y3 Real) )(! (>= (+ (* 84.0 ?y2) (* 60.0 x1)) 0.0) :qid k!18))
 ))
 (or $x615 $x722))))
 ))
 (let (($x384 (exists ((?y2_st RealState) (val!4 Real) )(exists ((?y3_st RealState) (val!5 Real) )(forall ((?y4 Real) )(let ((?x255 (- 75.0)))
 (let ((?x256 (* ?x255 x1)))
 (let ((?x327 (+ (+ (* (- 96.0) ?y4) (* (- 46.0) (rval2 ?y3_st))) (* 1.0 (rval2 ?y2_st)))))
 (let (($x119 (not (= ?y3_st (RMk1 val!5)))))
 (let (($x367 (not (= ?y2_st (RMk1 val!4)))))
 (and $x367 $x119 (<= (+ ?x327 ?x256) 0.0))))))))
 )
 )
 ))
 (let (($x1159 (or (and (or (or $x384 (and $x366 (or $x282 $x1261))) $x413) $x995) (and $x1103 $x1156))))
 (let (($x1265 (exists ((?y1_st RealState) (val!3 Real) )(forall ((?y2 Real) )(forall ((?y3 Real) )(let (($x240 (forall ((?y4 Real) )(! (let ((?x405 (- 11.0)))
 (let ((?x415 (- 22.0)))
 (let ((?x593 (* ?x415 x1)))
 (let ((?x412 (+ (+ (* ?x405 ?y4) (* 25.0 ?y3)) (* 74.0 ?y2))))
 (let ((?x602 (+ (+ (* (- 67.0) ?y4) (* (- 91.0) ?y3)) (* (- 79.0) ?y2))))
 (or (<= (+ ?x602 (* (- 38.0) (rval2 ?y1_st))) 48.0) (>= (+ (+ ?x412 (* 63.0 (rval2 ?y1_st))) ?x593) ?x405))))))) :qid k!18))
 ))
 (let ((?x382 (* 16.0 x1)))
 (let ((?x878 (* (- 55.0) ?y2)))
 (let ((?x510 (+ (* (- 71.0) ?y3) ?x878)))
 (let (($x1133 (forall ((?y4 Real) )(! (let ((?x372 (* (- 90.0) x1)))
 (let ((?x556 (* 29.0 ?y4)))
 (let ((?x564 (+ ?x556 (* (- 5.0) ?y2))))
 (= (+ (+ ?x564 (* (- 4.0) (rval2 ?y1_st))) ?x372) 0.0)))) :qid k!18))
 ))
 (let ((?x363 (* 18.0 x1)))
 (let ((?x1122 (+ (+ (+ (* 46.0 ?y3) (* 74.0 ?y2)) (* 58.0 (rval2 ?y1_st))) ?x363)))
 (let (($x1131 (and (or (>= ?x1122 0.0) $x1133) (< (+ (+ ?x510 (* 27.0 (rval2 ?y1_st))) ?x382) 49.0))))
 (let ((?x350 (* 56.0 x1)))
 (let (($x1095 (= (+ (+ (* (- 85.0) ?y2) (* (- 82.0) (rval2 ?y1_st))) ?x350) 6.0)))
 (let ((?x273 (- 95.0)))
 (let ((?x338 (* ?x273 x1)))
 (let (($x1116 (<= (+ (+ (* (- 13.0) ?y3) (* 79.0 (rval2 ?y1_st))) ?x338) 0.0)))
 (let (($x976 (and (> (+ (* (- 56.0) ?y2) (* (- 76.0) (rval2 ?y1_st))) (- 28.0)) $x1116)))
 (let (($x324 (= (+ (* 59.0 ?y3) ?x878) 42.0)))
 (let ((?x95 (- 35.0)))
 (let ((?x96 (* ?x95 x1)))
 (let ((?x1113 (+ (+ (+ (* 83.0 ?y3) (* 73.0 ?y2)) (* (- 72.0) (rval2 ?y1_st))) ?x96)))
 (let ((?x306 (* (- 66.0) x1)))
 (let ((?x473 (- 60.0)))
 (let ((?x301 (* ?x473 ?y2)))
 (let ((?x532 (+ (* (- 68.0) ?y3) ?x301)))
 (let (($x970 (and (= (* 16.0 (rval2 ?y1_st)) (- 36.0)) (<= (+ (+ ?x532 (* 17.0 (rval2 ?y1_st))) ?x306) 0.0))))
 (let (($x953 (or (or (and $x970 (or (<= ?x1113 6.0) $x324)) (or $x976 (not $x1095))) (and $x1131 $x240))))
 (let ((?x142 (* 68.0 x1)))
 (let (($x939 (>= (+ (+ (* (- 62.0) ?y3) (* (- 96.0) (rval2 ?y1_st))) ?x142) ?x95)))
 (let ((?x288 (- 29.0)))
 (let (($x289 (< (* (- 1.0) ?y3) ?x288)))
 (let (($x520 (or (not (= (+ (* 62.0 ?y3) (* (- 83.0) ?y2)) 0.0)) (not (= (+ (* 79.0 ?y3) (* ?x273 ?y2)) 0.0)))))
 (let ((?x255 (- 75.0)))
 (let ((?x256 (* ?x255 x1)))
 (let (($x931 (and (not (= (+ (* (- 62.0) ?y3) (* ?x95 (rval2 ?y1_st))) 0.0)) (> (+ (+ (* (- 98.0) ?y2) (* 69.0 (rval2 ?y1_st))) ?x256) 47.0))))
 (let ((?x479 (- 100.0)))
 (let ((?x480 (* ?x479 x1)))
 (let ((?x222 (* 15.0 ?y3)))
 (let ((?x226 (+ ?x222 (* (- 33.0) ?y2))))
 (let (($x909 (and (<= (+ (+ ?x226 (* (- 19.0) (rval2 ?y1_st))) ?x480) 0.0) (not (= (+ (* (- 57.0) ?y2) (* 15.0 (rval2 ?y1_st))) 17.0)))))
 (let (($x900 (<= (+ (+ (* 27.0 ?y2) (* ?x473 (rval2 ?y1_st))) (* 43.0 x1)) 6.0)))
 (let ((?x209 (- 30.0)))
 (let (($x210 (= (+ (+ (* (- 98.0) ?y3) (* 13.0 ?y2)) ?x142) ?x209)))
 (let (($x887 (>= (+ (+ (* 41.0 ?y2) (* 14.0 (rval2 ?y1_st))) (* (- 21.0) x1)) 64.0)))
 (let ((?x188 (- 36.0)))
 (let ((?x189 (* ?x188 x1)))
 (let (($x883 (<= (+ (+ (* 93.0 ?y3) (* (- 8.0) (rval2 ?y1_st))) ?x189) 69.0)))
 (let (($x310 (< (+ (+ (* 22.0 ?y2) (* 6.0 (rval2 ?y1_st))) (* 46.0 x1)) 0.0)))
 (let (($x463 (>= (+ (* 12.0 ?y2) (* 24.0 x1)) 4.0)))
 (let (($x340 (or (and (or $x463 $x310) (or (or $x883 $x887) (or $x210 $x900))) (and (or $x909 $x931) (or $x520 (or $x289 $x939))))))
 (let (($x1059 (not (= ?y1_st (RMk1 val!3)))))
 (and $x1059 (or $x340 $x953)))))))))))))))))))))))))))))))))))))))))))))))))))
 )
 )
 ))
 (or $x1265 $x1159))))))))))))
(check-sat)
